certificates/rado_a12_c16_N53.cnf
c Rad2 upper bound instance: x1 + 12*x2 - x3 = 16, interval [1,53]
p cnf 53 314
1 2 9 0
-1 -2 -9 0
1 3 21 0
-1 -3 -21 0
1 4 33 0
-1 -4 -33 0
1 5 45 0
-1 -5 -45 0
2 10 0
-2 -10 0
2 3 22 0
-2 -3 -22 0
2 4 34 0
-2 -4 -34 0
2 5 46 0
-2 -5 -46 0
2 3 11 0
-2 -3 -11 0
3 23 0
-3 -23 0
3 4 35 0
-3 -4 -35 0
3 5 47 0
-3 -5 -47 0
2 4 12 0
-2 -4 -12 0
3 4 24 0
-3 -4 -24 0
4 36 0
-4 -36 0
4 5 48 0
-4 -5 -48 0
1 5 0
-1 -5 0
2 5 13 0
-2 -5 -13 0
3 5 25 0
-3 -5 -25 0
4 5 37 0
-4 -5 -37 0
5 49 0
-5 -49 0
1 2 6 0
-1 -2 -6 0
2 6 14 0
-2 -6 -14 0
3 6 26 0
-3 -6 -26 0
4 6 38 0
-4 -6 -38 0
5 6 50 0
-5 -6 -50 0
1 3 7 0
-1 -3 -7 0
2 7 15 0
-2 -7 -15 0
3 7 27 0
-3 -7 -27 0
4 7 39 0
-4 -7 -39 0
5 7 51 0
-5 -7 -51 0
1 4 8 0
-1 -4 -8 0
2 8 16 0
-2 -8 -16 0
3 8 28 0
-3 -8 -28 0
4 8 40 0
-4 -8 -40 0
5 8 52 0
-5 -8 -52 0
1 5 9 0
-1 -5 -9 0
2 9 17 0
-2 -9 -17 0
3 9 29 0
-3 -9 -29 0
4 9 41 0
-4 -9 -41 0
5 9 53 0
-5 -9 -53 0
1 6 10 0
-1 -6 -10 0
2 10 18 0
-2 -10 -18 0
3 10 30 0
-3 -10 -30 0
4 10 42 0
-4 -10 -42 0
1 7 11 0
-1 -7 -11 0
2 11 19 0
-2 -11 -19 0
3 11 31 0
-3 -11 -31 0
4 11 43 0
-4 -11 -43 0
1 8 12 0
-1 -8 -12 0
2 12 20 0
-2 -12 -20 0
3 12 32 0
-3 -12 -32 0
4 12 44 0
-4 -12 -44 0
1 9 13 0
-1 -9 -13 0
2 13 21 0
-2 -13 -21 0
3 13 33 0
-3 -13 -33 0
4 13 45 0
-4 -13 -45 0
1 10 14 0
-1 -10 -14 0
2 14 22 0
-2 -14 -22 0
3 14 34 0
-3 -14 -34 0
4 14 46 0
-4 -14 -46 0
1 11 15 0
-1 -11 -15 0
2 15 23 0
-2 -15 -23 0
3 15 35 0
-3 -15 -35 0
4 15 47 0
-4 -15 -47 0
1 12 16 0
-1 -12 -16 0
2 16 24 0
-2 -16 -24 0
3 16 36 0
-3 -16 -36 0
4 16 48 0
-4 -16 -48 0
1 13 17 0
-1 -13 -17 0
2 17 25 0
-2 -17 -25 0
3 17 37 0
-3 -17 -37 0
4 17 49 0
-4 -17 -49 0
1 14 18 0
-1 -14 -18 0
2 18 26 0
-2 -18 -26 0
3 18 38 0
-3 -18 -38 0
4 18 50 0
-4 -18 -50 0
1 15 19 0
-1 -15 -19 0
2 19 27 0
-2 -19 -27 0
3 19 39 0
-3 -19 -39 0
4 19 51 0
-4 -19 -51 0
1 16 20 0
-1 -16 -20 0
2 20 28 0
-2 -20 -28 0
3 20 40 0
-3 -20 -40 0
4 20 52 0
-4 -20 -52 0
1 17 21 0
-1 -17 -21 0
2 21 29 0
-2 -21 -29 0
3 21 41 0
-3 -21 -41 0
4 21 53 0
-4 -21 -53 0
1 18 22 0
-1 -18 -22 0
2 22 30 0
-2 -22 -30 0
3 22 42 0
-3 -22 -42 0
1 19 23 0
-1 -19 -23 0
2 23 31 0
-2 -23 -31 0
3 23 43 0
-3 -23 -43 0
1 20 24 0
-1 -20 -24 0
2 24 32 0
-2 -24 -32 0
3 24 44 0
-3 -24 -44 0
1 21 25 0
-1 -21 -25 0
2 25 33 0
-2 -25 -33 0
3 25 45 0
-3 -25 -45 0
1 22 26 0
-1 -22 -26 0
2 26 34 0
-2 -26 -34 0
3 26 46 0
-3 -26 -46 0
1 23 27 0
-1 -23 -27 0
2 27 35 0
-2 -27 -35 0
3 27 47 0
-3 -27 -47 0
1 24 28 0
-1 -24 -28 0
2 28 36 0
-2 -28 -36 0
3 28 48 0
-3 -28 -48 0
1 25 29 0
-1 -25 -29 0
2 29 37 0
-2 -29 -37 0
3 29 49 0
-3 -29 -49 0
1 26 30 0
-1 -26 -30 0
2 30 38 0
-2 -30 -38 0
3 30 50 0
-3 -30 -50 0
1 27 31 0
-1 -27 -31 0
2 31 39 0
-2 -31 -39 0
3 31 51 0
-3 -31 -51 0
1 28 32 0
-1 -28 -32 0
2 32 40 0
-2 -32 -40 0
3 32 52 0
-3 -32 -52 0
1 29 33 0
-1 -29 -33 0
2 33 41 0
-2 -33 -41 0
3 33 53 0
-3 -33 -53 0
1 30 34 0
-1 -30 -34 0
2 34 42 0
-2 -34 -42 0
1 31 35 0
-1 -31 -35 0
2 35 43 0
-2 -35 -43 0
1 32 36 0
-1 -32 -36 0
2 36 44 0
-2 -36 -44 0
1 33 37 0
-1 -33 -37 0
2 37 45 0
-2 -37 -45 0
1 34 38 0
-1 -34 -38 0
2 38 46 0
-2 -38 -46 0
1 35 39 0
-1 -35 -39 0
2 39 47 0
-2 -39 -47 0
1 36 40 0
-1 -36 -40 0
2 40 48 0
-2 -40 -48 0
1 37 41 0
-1 -37 -41 0
2 41 49 0
-2 -41 -49 0
1 38 42 0
-1 -38 -42 0
2 42 50 0
-2 -42 -50 0
1 39 43 0
-1 -39 -43 0
2 43 51 0
-2 -43 -51 0
1 40 44 0
-1 -40 -44 0
2 44 52 0
-2 -44 -52 0
1 41 45 0
-1 -41 -45 0
2 45 53 0
-2 -45 -53 0
1 42 46 0
-1 -42 -46 0
1 43 47 0
-1 -43 -47 0
1 44 48 0
-1 -44 -48 0
1 45 49 0
-1 -45 -49 0
1 46 50 0
-1 -46 -50 0
1 47 51 0
-1 -47 -51 0
1 48 52 0
-1 -48 -52 0
1 49 53 0
-1 -49 -53 0
