certificates/rado_a12_c16_N53.drat
-49 -53 0
-53 0
49 0
-5 0
1 0
9 0
-45 0
-13 0
-2 0
0
